c SAT Generator for power-law distributed variable frequencies
c -g u -v 20 -c 91 -k 3 -p 2.750000 -b 3.200000 -f /home/schmidt/Devel/ni-kop-sat/data/ensemble/ruf20-91/ruf20-91-229 -u 1 -U 1 -s 4534139
p cnf 20 91
-5 -7 -11 0
10 -13 -15 0
-8 10 -19 0
-7 -9 19 0
1 -16 -19 0
7 8 -9 0
-11 -14 -15 0
5 -9 -14 0
2 18 20 0
8 -9 -19 0
-4 -12 -19 0
10 -13 -17 0
1 8 15 0
-16 18 19 0
-8 -15 17 0
5 -9 20 0
-5 -7 17 0
17 -18 19 0
-5 -12 20 0
-7 -12 15 0
-1 2 16 0
-2 3 16 0
-3 -10 16 0
-11 16 -19 0
-1 -2 -5 0
-7 -11 14 0
-4 -12 13 0
-5 10 16 0
2 -3 17 0
-1 -5 -14 0
-7 -9 18 0
-3 -8 14 0
3 -5 -8 0
-8 10 -15 0
4 17 18 0
2 -6 11 0
9 -10 12 0
-1 -6 -16 0
1 5 -7 0
5 11 -19 0
-1 8 -18 0
13 16 -17 0
-1 -9 20 0
-4 -12 14 0
8 -16 17 0
1 3 8 0
-8 10 -12 0
2 -8 -9 0
6 -12 -13 0
1 -2 7 0
1 2 -18 0
5 -7 20 0
4 10 14 0
-5 8 12 0
7 11 20 0
1 13 18 0
-8 -14 -19 0
8 -17 18 0
6 -17 -19 0
3 -12 14 0
-9 -10 19 0
-1 3 20 0
10 -11 -15 0
10 -12 -14 0
5 6 -8 0
-2 13 -19 0
-5 6 9 0
-3 -12 20 0
-6 13 15 0
-6 -7 10 0
1 -3 -12 0
-1 4 10 0
-1 -3 6 0
3 -5 -15 0
2 -14 17 0
5 7 -19 0
1 6 -9 0
-7 -9 -12 0
3 7 -9 0
1 4 -7 0
-3 -10 14 0
-1 -10 -16 0
-6 -13 -19 0
-8 -9 18 0
6 -12 18 0
4 -16 19 0
-5 -9 10 0
6 11 14 0
1 16 17 0
-2 -8 -14 0
-14 16 17 0
